Test: battleship-08-15-sat.cnf
Options: -no-inverting-opt -sym-var-bump
WARNING: for repeatability, setting FPU to use double precision
============================[ Problem Statistics ]=============================
|                                                                             |
|  Number of symmetries:           14                                         |
|  Number of invertingSyms:         0                                         |
|  Number of variables:           120                                         |
|  Number of clauses:             484                                         |
|  Parse time:                   0.00 s                                       |
|                                                                             |
============================[ Search Statistics ]==============================
| Conflicts |          ORIGINAL         |          LEARNT          | Progress |
|           |    Vars  Clauses Literals |    Limit  Clauses Lit/Cl |          |
===============================================================================
===============================================================================
restarts              : 1
conflicts             : 28             (inf /sec)
symconflicts          : 4              (inf /sec)
decisions             : 98             (0.00 % random) (inf /sec)
propagations          : 541            (inf /sec)
sympropagations       : 16             (inf /sec)
conflict literals     : 894            (0.22 % deleted)
literals     : 894            (0.22 % deleted)

HEURISTIC USAGES
random                : 0           
activity w/ lookahead : 0           
activity no lookahead : 0           
original sp           : 97          
sym count             : 0           

Memory used           : 5.00 MB
CPU time              : 0 s

SATISFIABLE
